num_offers = 35;
num_halls = 10;
start=[7,18,27,23,47,8,23,15,19,86,28,37,8,39,12,10,13,19,23,5,39,39,2,14,38,4,28,11,66,31,70,28,51,26,10];
end=[35,24,78,79,91,14,82,98,36,90,87,60,83,97,82,61,21,52,81,49,70,85,54,15,49,88,82,44,74,89,91,37,56,69,54];
price=[2673,502,1424,2137,2509,478,1108,6334,1240,158,1519,1506,6405,1834,6241,5017,638,2941,3390,1781,629,2086,2403,141,504,8314,4850,1812,591,4278,1353,769,485,3410,1234];
requirement=[254,782,790,755,357,224,680,727,883,953,842,207,293,493,607,345,652,732,371,868,661,541,433,948,916,811,206,268,378,807,752,617,776,960,350];
capacity=[589,764,791,386,721,931,933,797,488,939];
